
Log started (V12.10.0.0) Mon Apr  5 22:28:49 2021


Problem 'asset.lp' read.
Read time = 0.01 sec. (0.50 ticks)
New value for default parallel thread count: 1
New value for time limit in seconds: 150
Version identifier: 12.10.0.0 | 2019-11-26 | 843d4de
CPXPARAM_Threads                                 1
CPXPARAM_TimeLimit                               150
Found incumbent of value 0.000000 after 0.00 sec. (0.14 ticks)
Tried aggregator 3 times.
MIP Presolve eliminated 1079 rows and 287 columns.
MIP Presolve modified 3424 coefficients.
Aggregator did 1694 substitutions.
Reduced MIP has 1701 rows, 2418 columns, and 10330 nonzeros.
Reduced MIP has 2145 binaries, 221 generals, 0 SOSs, and 0 indicators.
Presolve time = 0.02 sec. (19.23 ticks)
Probing fixed 54 vars, tightened 2 bounds.
Probing time = 0.02 sec. (10.26 ticks)
Cover probing fixed 0 vars, tightened 17 bounds.
Tried aggregator 1 time.
Detecting symmetries...
MIP Presolve eliminated 65 rows and 65 columns.
MIP Presolve modified 452 coefficients.
Reduced MIP has 1636 rows, 2353 columns, and 9743 nonzeros.
Reduced MIP has 2082 binaries, 219 generals, 0 SOSs, and 0 indicators.
Presolve time = 0.01 sec. (9.10 ticks)
Probing time = 0.00 sec. (2.90 ticks)
Clique table members: 6136.
MIP emphasis: balance optimality and feasibility.
MIP search method: dynamic search.
Parallel mode: none, using 1 thread.
Root relaxation solution time = 0.01 sec. (17.94 ticks)

        Nodes                                         Cuts/
   Node  Left     Objective  IInf  Best Integer    Best Bound    ItCnt     Gap

*     0+    0                            0.0000      284.0000              --- 
      0     0      284.0000   288        0.0000      284.0000      529     --- 
      0     0      284.0000   288        0.0000      Cuts: 81      749     --- 
      0     0      284.0000   288        0.0000     Cuts: 509     1308     --- 
      0     0      284.0000   288        0.0000      Cuts: 56     1490     --- 
*     0+    0                           66.0000      284.0000           330.30%
*     0+    0                           70.0000      284.0000           305.71%
      0     0        cutoff             70.0000      284.0000     1490  305.71%
      0     0      284.0000   288       70.0000     Cuts: 404     1984  305.71%
*     0+    0                           78.0000      284.0000           264.10%
*     0+    0                          102.0000      284.0000           178.43%
*     0+    0                          166.0000      284.0000            71.08%
      0     0        cutoff            166.0000      284.0000     1984   71.08%
Detecting symmetries...
      0     2      284.0000   179      166.0000      284.0000     1984   71.08%
Elapsed time = 0.88 sec. (1115.40 ticks, tree = 0.01 MB, solutions = 5)
     22    24      284.0000   189      166.0000      284.0000     4652   71.08%
     40    42      284.0000   188      166.0000      284.0000     6631   71.08%
     70    72      284.0000   220      166.0000      284.0000    10324   71.08%
    100   102      284.0000   179      166.0000      284.0000    13652   71.08%
    120   122      284.0000   190      166.0000      284.0000    16580   71.08%
    158   160      284.0000   167      166.0000      284.0000    19461   71.08%
    218   220      279.3333   173      166.0000      284.0000    24183   71.08%
    260   262      284.0000   152      166.0000      284.0000    26240   71.08%
    333   335      268.7688   131      166.0000      284.0000    30502   71.08%
*   529+  493                          190.0000      284.0000            49.47%
*   529+  493                          192.0000      284.0000            47.92%
*   529+  493                          196.0000      284.0000            44.90%
    529   495      282.2360   198      196.0000      284.0000    40712   44.90%
Elapsed time = 4.53 sec. (5677.86 ticks, tree = 0.89 MB, solutions = 8)
*   531+  495                          198.0000      284.0000            43.43%
*   532+  496                          216.0000      284.0000            31.48%

Performing restart 1

Repeating presolve.
Tried aggregator 1 time.
MIP Presolve modified 2122 coefficients.
Reduced MIP has 1636 rows, 2353 columns, and 8145 nonzeros.
Reduced MIP has 2082 binaries, 219 generals, 0 SOSs, and 0 indicators.
Presolve time = 0.01 sec. (7.16 ticks)
Tried aggregator 1 time.
Reduced MIP has 1636 rows, 2353 columns, and 8145 nonzeros.
Reduced MIP has 2082 binaries, 219 generals, 0 SOSs, and 0 indicators.
Presolve time = 0.01 sec. (5.78 ticks)
Represolve time = 0.04 sec. (33.94 ticks)
    642     0      284.0000   396      216.0000      Cuts: 69    47933   31.48%
    642     0      284.0000   396      216.0000     Cuts: 411    49170   31.48%
    642     0      284.0000   396      216.0000     Cuts: 115    49997   31.48%
    642     0      284.0000   396      216.0000     Cuts: 322    50794   31.48%
    642     0      284.0000   396      216.0000     Cuts: 112    51370   31.48%
    642     0      284.0000   396      216.0000     Cuts: 375    52500   31.48%
    642     0      284.0000   396      216.0000      Cuts: 30    52819   31.48%
    642     0      284.0000   396      216.0000     Cuts: 460    53971   31.48%
    642     2      284.0000   209      216.0000      284.0000    53971   31.48%
    650    10      284.0000   280      216.0000      284.0000    57278   31.48%
    654    14      284.0000   237      216.0000      284.0000    58357   31.48%
    662    22      277.0603   200      216.0000      284.0000    62908   31.48%
    677    37      278.5786   311      216.0000      284.0000    64089   31.48%
    720    71      284.0000   268      216.0000      284.0000    66609   31.48%
    721    72      282.9353   421      216.0000      284.0000    73145   31.48%
    732    83      284.0000   295      216.0000      284.0000    75608   31.48%
    734    85      283.4516   427      216.0000      284.0000    85423   31.48%
    742    93      284.0000   303      216.0000      284.0000    86109   31.48%
Elapsed time = 17.37 sec. (23836.26 ticks, tree = 1.10 MB, solutions = 10)
    757   108      283.9008   336      216.0000      284.0000    90084   31.48%
    758   109      282.3001   431      216.0000      284.0000    98125   31.48%
    765   116      281.9228   338      216.0000      284.0000   101206   31.48%
    792   140      282.0000   370      216.0000      284.0000   105321   31.48%
    796   144      278.7473   348      216.0000      284.0000   113298   31.48%
    821   165      273.3914   339      216.0000      284.0000   123886   31.48%
    844   178      284.0000   273      216.0000      284.0000   132693   31.48%
    882   216      283.9907   335      216.0000      284.0000   136852   31.48%
    915   236      281.3814   395      216.0000      284.0000   143487   31.48%
*   942+  260                          218.0000      284.0000            30.28%
    947   267      272.1176   379      218.0000      284.0000   151879   30.28%
Elapsed time = 25.46 sec. (35685.39 ticks, tree = 1.46 MB, solutions = 11)
    970   281      282.2953   327      218.0000      284.0000   162142   30.28%
    997   302      280.9530   307      218.0000      284.0000   170784   30.28%
   1013   318      274.0000   360      218.0000      284.0000   178872   30.28%
   1015   320      273.6057   412      218.0000      284.0000   186960   30.28%
*  1042+  344                          220.0000      284.0000            29.09%
   1042   346      264.0000   351      220.0000      284.0000   192981   29.09%
   1075   372      281.7563   332      220.0000      284.0000   199218   29.09%
   1104   392      284.0000   249      220.0000      284.0000   207606   29.09%
   1125   412      272.9708   277      220.0000      284.0000   217600   29.09%
   1147   422      284.0000   244      220.0000      284.0000   220866   29.09%
   1159   434      283.1942   341      220.0000      284.0000   227208   29.09%
Elapsed time = 35.45 sec. (49448.02 ticks, tree = 1.63 MB, solutions = 12)
   1181   453      260.6951   281      220.0000      284.0000   234809   29.09%
   1202   462      281.7998   283      220.0000      284.0000   242739   29.09%
   1227   487      273.4716   306      220.0000      284.0000   249897   29.09%
*  1242+  494                          226.0000      284.0000            25.66%
*  1242+  494                          228.0000      284.0000            24.56%
   1242   496      267.2286   302      228.0000      284.0000   252266   24.56%
   1265   511      282.4589   389      228.0000      284.0000   260213   24.56%
   1278   524      282.0000   316      228.0000      284.0000   268279   24.56%
   1323   561      284.0000   292      228.0000      284.0000   272745   24.56%
*  1342+  575                          232.0000      284.0000            22.41%
   1342   577      271.1681   299      232.0000      284.0000   275404   22.41%
   1384   603      274.4612   280      232.0000      284.0000   279859   22.41%
   1410   617      283.4310   321      232.0000      284.0000   284806   22.41%
Elapsed time = 44.72 sec. (62582.16 ticks, tree = 1.86 MB, solutions = 15)
*  1442+  647                          234.0000      284.0000            21.37%
   1442   649      267.3682   324      234.0000      284.0000   287400   21.37%
   1472   669      282.4627   306      234.0000      284.0000   292025   21.37%
   1504   693      253.1047   240      234.0000      284.0000   296733   21.37%
   1541   725      275.0000   303      234.0000      284.0000   300771   21.37%
   1579   756      283.1945   370      234.0000      284.0000   305699   21.37%
   1622   786      284.0000   330      234.0000      284.0000   311364   21.37%
   1654   807      282.5306   257      234.0000      284.0000   316944   21.37%
   1702   855      266.0000   260      234.0000      284.0000   321088   21.37%
   1853  1002      238.0000    37      234.0000      284.0000   324331   21.37%
   1865  1010      281.7013   318      234.0000      284.0000   327299   21.37%
Elapsed time = 54.56 sec. (76724.42 ticks, tree = 2.60 MB, solutions = 16)
   1907  1046      256.0000   307      234.0000      284.0000   331769   21.37%
   1918  1053      280.2091   335      234.0000      284.0000   337095   21.37%
   1935  1070      273.0749   351      234.0000      284.0000   343675   21.37%
   1977  1108      280.0000   337      234.0000      284.0000   350711   21.37%
   2004  1122      281.6130   349      234.0000      284.0000   358719   21.37%
   2044  1153      279.3957   406      234.0000      284.0000   366481   21.37%
   2067  1176      264.8799   315      234.0000      284.0000   370956   21.37%
   2080  1181      281.5422   380      234.0000      284.0000   375445   21.37%
   2099  1200      275.3093   337      234.0000      284.0000   378124   21.37%
   2123  1216      278.9709   306      234.0000      284.0000   382639   21.37%
Elapsed time = 62.09 sec. (87930.22 ticks, tree = 2.85 MB, solutions = 16)
   2142  1235      275.2515   299      234.0000      284.0000   388621   21.37%
   2166  1257      267.9642   297      234.0000      284.0000   393370   21.37%
   2191  1276      279.4263   334      234.0000      284.0000   398285   21.37%
   2210  1295      270.0000   298      234.0000      284.0000   402246   21.37%
   2242  1321      260.0000   280      234.0000      284.0000   403421   21.37%
   2291  1362      282.8474   391      234.0000      284.0000   407645   21.37%
   2306  1377      275.6686   325      234.0000      284.0000   412845   21.37%
   2332  1386      284.0000   336      234.0000      284.0000   416214   21.37%
   2349  1403      270.6911   325      234.0000      284.0000   420896   21.37%
   2367  1413      284.0000   354      234.0000      284.0000   424257   21.37%
Elapsed time = 70.85 sec. (100447.47 ticks, tree = 3.14 MB, solutions = 16)
   2395  1441      279.2395   300      234.0000      284.0000   429818   21.37%
   2412  1455    infeasible            234.0000      284.0000   436246   21.37%
   2420  1461      284.0000   337      234.0000      284.0000   441159   21.37%
   2428  1469      281.9728   359      234.0000      284.0000   447252   21.37%
   2438  1479      274.0000   324      234.0000      284.0000   455242   21.37%
   2470  1501      283.3384   374      234.0000      284.0000   459960   21.37%
   2506  1525      280.7816   379      234.0000      284.0000   467130   21.37%
   2530  1548      259.8156   332      234.0000      284.0000   471469   21.37%
   2545  1556      281.1840   366      234.0000      284.0000   477278   21.37%
   2558  1567      264.4255   318      234.0000      284.0000   483663   21.37%
Elapsed time = 78.37 sec. (111775.54 ticks, tree = 3.32 MB, solutions = 16)
   2569  1572      280.4314   419      234.0000      284.0000   492069   21.37%
   2592  1593      260.1953   258      234.0000      284.0000   496488   21.37%
   2616  1608      273.9703   342      234.0000      284.0000   501537   21.37%
   2628  1613      283.2881   421      234.0000      284.0000   508422   21.37%
   2640  1625      276.9927   437      234.0000      284.0000   517291   21.37%
*  2642+ 1609                          236.0000      284.0000            20.34%
*  2642+ 1518                          238.0000      284.0000            19.33%
   2642  1520      274.0000   427      238.0000      284.0000   518035   19.33%
   2656  1534      269.9438   434      238.0000      284.0000   524217   19.33%
   2748  1626      252.0000   246      238.0000      284.0000   527524   19.33%
   2897  1769      284.0000   357      238.0000      284.0000   532335   19.33%
   2976  1835      282.0000   398      238.0000      284.0000   552256   19.33%
Elapsed time = 91.03 sec. (130167.65 ticks, tree = 3.51 MB, solutions = 18)
   3042  1890      244.0000   263      238.0000      284.0000   566587   19.33%
   3183  2002      244.0000   265      238.0000      284.0000   584697   19.33%
   3271  2065      282.5106   398      238.0000      284.0000   603853   19.33%
   3302  2092      261.7304   381      238.0000      284.0000   623201   19.33%
   3393  2174      254.0000   263      238.0000      284.0000   642640   19.33%
   3500  2260      246.0000   260      238.0000      284.0000   661238   19.33%
   3542  2291      282.4502   409      238.0000      284.0000   677363   19.33%
   3613  2341      280.0000   400      238.0000      284.0000   698734   19.33%
   3634  2362      274.0000   424      238.0000      284.0000   721158   19.33%
   3642  2370      271.0000   325      238.0000      284.0000   730799   19.33%
Elapsed time = 120.80 sec. (171602.40 ticks, tree = 4.39 MB, solutions = 18)
   3748  2453      282.3960   389      238.0000      284.0000   752656   19.33%
   3895  2578      244.0000   269      238.0000      284.0000   770797   19.33%
   3982  2644      280.5382   355      238.0000      284.0000   791232   19.33%
   4055  2709      272.0000   333      238.0000      284.0000   809736   19.33%
   4275  2922      274.8864   348      238.0000      284.0000   841439   19.33%
   4307  2950      275.9782   342      238.0000      284.0000   874384   19.33%
*  4342+ 2792                          240.0000      284.0000            18.33%
Starting limited solution polishing.
   4376  2817      282.5622   402      240.0000      284.0000   900940   18.33%
   4411  2851      261.5346   366      240.0000      284.0000   923212   18.33%
   4442  2870      252.0000   302      240.0000      284.0000   928852   18.33%
   4512  2925      250.0000   231      240.0000      284.0000   950413   18.33%
Elapsed time = 148.52 sec. (210906.64 ticks, tree = 5.08 MB, solutions = 19)

GUB cover cuts applied:  103
Clique cuts applied:  146
Cover cuts applied:  24
Implied bound cuts applied:  387
Flow cuts applied:  10
Mixed integer rounding cuts applied:  45
Zero-half cuts applied:  15
Gomory fractional cuts applied:  3

Root node processing (before b&c):
  Real time             =    0.87 sec. (1108.59 ticks)
Sequential b&c:
  Real time             =  149.13 sec. (211778.75 ticks)
                          ------------
Total (root+branch&cut) =  150.00 sec. (212887.33 ticks)

Solution pool: 20 solutions saved.

MIP - Time limit exceeded, integer feasible:  Objective =  2.4000000000e+02
Current MIP best bound =  2.8400000000e+02 (gap = 44, 18.33%)
Solution time =  150.00 sec.  Iterations = 958365  Nodes = 4554 (2961)
Deterministic time = 212887.35 ticks  (1419.24 ticks/sec)


Incumbent solution
Variable Name           Solution Value
F                           240.000000
y2                            1.000000
y3                            1.000000
y16                           1.000000
y17                           1.000000
y29                           1.000000
y30                           1.000000
y35                           1.000000
y48                           1.000000
y58                           1.000000
y60                           1.000000
y64                           1.000000
y66                           1.000000
y67                           1.000000
y88                           1.000000
y99                           1.000000
y116                          1.000000
y117                          1.000000
y133                          1.000000
y135                          1.000000
y140                          1.000000
y148                          1.000000
y149                          1.000000
y158                          1.000000
y187                          1.000000
y189                          1.000000
y204                          1.000000
y205                          1.000000
y206                          1.000000
y209                          1.000000
y215                          1.000000
y224                          1.000000
y225                          1.000000
y226                          1.000000
y229                          1.000000
y246                          1.000000
y251                          1.000000
y254                          1.000000
y264                          1.000000
y265                          1.000000
y267                          1.000000
y270                          1.000000
y285                          1.000000
y287                          1.000000
y288                          1.000000
y289                          1.000000
y296                          1.000000
x9x226x1                      1.000000
x22x29x1                      1.000000
x22x189x1                     1.000000
x65x148x1                     1.000000
x89x246x1                     1.000000
x114x88x1                     1.000000
x126x296x1                    1.000000
x142x296x1                    1.000000
x169x135x1                    1.000000
x169x187x1                    1.000000
x170x251x1                    1.000000
x261x206x1                    1.000000
x4x135x2                      1.000000
x4x215x2                      1.000000
x97x3x2                       1.000000
x109x187x2                    1.000000
x109x224x2                    1.000000
x114x99x2                     1.000000
x159x58x2                     1.000000
x159x254x2                    1.000000
x211x204x2                    1.000000
x211x246x2                    1.000000
x240x88x2                     1.000000
x240x224x2                    1.000000
x9x226x3                      1.000000
x76x148x3                     1.000000
x84x99x3                      1.000000
x84x189x3                     1.000000
x89x251x3                     1.000000
x97x254x3                     1.000000
x126x267x3                    1.000000
x142x267x3                    1.000000
x170x204x3                    1.000000
x257x3x3                      1.000000
x257x58x3                     1.000000
x261x206x3                    1.000000
x99x2x3                       1.000000
x189x2x3                      1.000000
x2x0x3                        2.000000
x3x215x2                      1.000000
x3x289x3                      1.000000
x58x16x2                      1.000000
x254x16x2                     1.000000
x16x35x2                      1.000000
x16x265x2                     1.000000
x133x17x2                     1.000000
x17x0x2                       1.000000
x67x17x3                      1.000000
x17x0x3                       1.000000
x29x64x1                      1.000000
x148x29x3                     1.000000
x29x64x3                      1.000000
x224x30x2                     2.000000
x30x0x2                       2.000000
x35x0x2                       1.000000
x67x35x3                      1.000000
x35x0x3                       1.000000
x135x48x2                     1.000000
x204x48x2                     1.000000
x48x0x2                       2.000000
x58x264x3                     1.000000
x88x60x2                      1.000000
x60x0x2                       1.000000
x229x60x3                     1.000000
x60x0x3                       1.000000
x64x0x1                       1.000000
x64x0x3                       1.000000
x206x66x1                     1.000000
x251x66x1                     1.000000
x66x270x1                     2.000000
x267x67x3                     2.000000
x88x149x1                     1.000000
x99x287x2                     1.000000
x189x116x1                    1.000000
x288x116x1                    1.000000
x116x0x1                      2.000000
x229x117x1                    1.000000
x246x117x1                    1.000000
x117x0x1                      2.000000
x246x133x2                    1.000000
x251x133x3                    1.000000
x133x285x3                    1.000000
x135x149x1                    1.000000
x205x140x1                    1.000000
x288x140x1                    1.000000
x140x0x1                      2.000000
x148x205x1                    1.000000
x149x0x1                      2.000000
x187x158x2                    1.000000
x158x0x2                      1.000000
x289x158x3                    1.000000
x158x0x3                      1.000000
x187x209x1                    1.000000
x204x229x3                    1.000000
x206x205x3                    1.000000
x205x209x3                    1.000000
x209x0x1                      1.000000
x209x0x3                      1.000000
x215x285x2                    1.000000
x215x287x2                    1.000000
x264x225x3                    2.000000
x225x0x3                      2.000000
x226x229x1                    1.000000
x226x289x3                    1.000000
x254x264x3                    1.000000
x265x0x2                      1.000000
x289x265x3                    1.000000
x265x0x3                      1.000000
x270x0x1                      2.000000
x285x0x2                      1.000000
x285x0x3                      1.000000
x287x0x2                      2.000000
x296x288x1                    2.000000
s4                            5.220000
s3                            6.640135
s16                           7.742846
z4z16z2                       1.000000
s17                           9.490000
s30                           8.790000
z4z30z2                       1.000000
s35                           9.290000
s48                           8.700345
z4z48z2                       1.000000
s58                           6.476552
s60                           9.174104
s80                           7.760000
s88                           7.240773
s99                           7.162342
s133                          7.998029
s135                          7.121112
z4z135z2                      1.000000
s158                          9.166074
s187                          7.410000
s204                          6.429099
s215                          7.674304
z4z215z2                      1.000000
s224                          7.088221
s242                          8.160000
s246                          6.387419
s254                          6.660572
s265                          9.350000
s285                          9.184815
s287                          9.260000
z4z287z2                      1.000000
s9                            5.078856
s2                            8.740000
z9z2z3                        1.000000
s29                           7.163703
s55                           8.810000
z9z55z1                       1.000000
s64                           8.780000
s66                           7.580000
z9z66z1                       1.000000
s67                           8.210000
z9z67z3                       1.000000
s78                           8.250000
z9z78z1                       1.000000
s116                          9.230000
z9z116z1                      1.000000
s117                          9.390000
z9z117z1                      1.000000
s125                          9.370000
s140                          9.209279
z9z140z1                      1.000000
s148                          6.103334
s149                          8.700000
z9z149z1                      1.000000
s154                          9.230000
s161                          8.100000
z9z161z1                      1.000000
s177                          7.700000
z9z177z1                      1.000000
s189                          7.114256
s196                          8.240000
z9z196z1                      1.000000
s205                          7.973638
s206                          6.501245
s209                          9.124045
s225                          9.310000
z9z225z3                      1.000000
s226                          6.620000
z9z226z1                      1.000000
z9z226z3                      1.000000
s229                          8.048848
s233                          7.640000
z9z233z1                      1.000000
s250                          7.830000
s251                          6.566667
s264                          7.670000
z9z264z3                      1.000000
s267                          6.685343
s268                          8.280000
z9z268z1                      1.000000
s269                          7.740000
z9z269z1                      1.000000
s270                          9.320000
z9z270z1                      1.000000
s288                          8.179465
z9z288z1                      1.000000
s289                          7.670000
z9z289z3                      1.000000
s296                          6.644094
s298                          9.400000
s22                           5.745726
z22z29z1                      1.000000
z22z55z1                      1.000000
z22z78z1                      1.000000
z22z116z1                     1.000000
z22z117z1                     1.000000
z22z140z1                     1.000000
z22z149z1                     1.000000
z22z161z1                     1.000000
z22z177z1                     1.000000
z22z189z1                     1.000000
z22z196z1                     1.000000
z22z233z1                     1.000000
z22z268z1                     1.000000
z22z269z1                     1.000000
z22z270z1                     1.000000
z22z288z1                     1.000000
s65                           4.190000
z65z55z1                      1.000000
z65z66z1                      1.000000
z65z78z1                      1.000000
z65z116z1                     1.000000
z65z117z1                     1.000000
z65z140z1                     1.000000
z65z148z1                     1.000000
z65z149z1                     1.000000
z65z161z1                     1.000000
z65z177z1                     1.000000
z65z196z1                     1.000000
z65z233z1                     1.000000
z65z268z1                     1.000000
z65z269z1                     1.000000
z65z270z1                     1.000000
z65z288z1                     1.000000
z65z296z1                     1.000000
s76                           3.945503
z76z2z3                       1.000000
z76z67z3                      1.000000
z76z148z3                     1.000000
z76z225z3                     1.000000
z76z264z3                     1.000000
z76z267z3                     1.000000
z76z289z3                     1.000000
s84                           5.474800
z84z2z3                       1.000000
z84z67z3                      1.000000
z84z99z3                      1.000000
z84z189z3                     1.000000
z84z225z3                     1.000000
z84z289z3                     1.000000
s89                           4.540000
z89z2z3                       1.000000
z89z55z1                      1.000000
z89z66z1                      1.000000
z89z67z3                      1.000000
z89z78z1                      1.000000
z89z116z1                     1.000000
z89z117z1                     1.000000
z89z140z1                     1.000000
z89z149z1                     1.000000
z89z161z1                     1.000000
z89z177z1                     1.000000
z89z196z1                     1.000000
z89z225z3                     1.000000
z89z233z1                     1.000000
z89z246z1                     1.000000
z89z251z3                     1.000000
z89z264z3                     1.000000
z89z268z1                     1.000000
z89z269z1                     1.000000
z89z270z1                     1.000000
z89z288z1                     1.000000
z89z289z3                     1.000000
s97                           5.450000
z97z2z3                       1.000000
z97z3z2                       1.000000
z97z16z2                      1.000000
z97z30z2                      1.000000
z97z48z2                      1.000000
z97z67z3                      1.000000
z97z215z2                     1.000000
z97z225z3                     1.000000
z97z254z3                     1.000000
z97z264z3                     1.000000
z97z287z2                     1.000000
z97z289z3                     1.000000
s109                          5.774874
z109z30z2                     1.000000
z109z48z2                     1.000000
z109z187z2                    1.000000
z109z224z2                    1.000000
z109z287z2                    1.000000
s114                          5.507483
z114z16z2                     1.000000
z114z30z2                     1.000000
z114z48z2                     1.000000
z114z55z1                     1.000000
z114z78z1                     1.000000
z114z88z1                     1.000000
z114z99z2                     1.000000
z114z116z1                    1.000000
z114z117z1                    1.000000
z114z140z1                    1.000000
z114z149z1                    1.000000
z114z161z1                    1.000000
z114z177z1                    1.000000
z114z196z1                    1.000000
z114z233z1                    1.000000
z114z268z1                    1.000000
z114z269z1                    1.000000
z114z270z1                    1.000000
z114z287z2                    1.000000
z114z288z1                    1.000000
s126                          5.240000
z126z2z3                      1.000000
z126z55z1                     1.000000
z126z66z1                     1.000000
z126z67z3                     1.000000
z126z78z1                     1.000000
z126z116z1                    1.000000
z126z117z1                    1.000000
z126z140z1                    1.000000
z126z149z1                    1.000000
z126z161z1                    1.000000
z126z177z1                    1.000000
z126z196z1                    1.000000
z126z225z3                    1.000000
z126z233z1                    1.000000
z126z264z3                    1.000000
z126z267z3                    1.000000
z126z268z1                    1.000000
z126z269z1                    1.000000
z126z270z1                    1.000000
z126z288z1                    1.000000
z126z289z3                    1.000000
z126z296z1                    1.000000
s142                          5.208669
z142z2z3                      1.000000
z142z55z1                     1.000000
z142z67z3                     1.000000
z142z78z1                     1.000000
z142z116z1                    1.000000
z142z117z1                    1.000000
z142z140z1                    1.000000
z142z149z1                    1.000000
z142z161z1                    1.000000
z142z177z1                    1.000000
z142z196z1                    1.000000
z142z225z3                    1.000000
z142z233z1                    1.000000
z142z267z3                    1.000000
z142z268z1                    1.000000
z142z269z1                    1.000000
z142z270z1                    1.000000
z142z288z1                    1.000000
z142z296z1                    1.000000
s159                          5.211061
z159z16z2                     1.000000
z159z30z2                     1.000000
z159z48z2                     1.000000
z159z58z2                     1.000000
z159z215z2                    1.000000
z159z224z2                    1.000000
z159z254z2                    1.000000
z159z287z2                    1.000000
s169                          5.601911
z169z55z1                     1.000000
z169z66z1                     1.000000
z169z78z1                     1.000000
z169z116z1                    1.000000
z169z117z1                    1.000000
z169z135z1                    1.000000
z169z140z1                    1.000000
z169z149z1                    1.000000
z169z161z1                    1.000000
z169z177z1                    1.000000
z169z187z1                    1.000000
z169z196z1                    1.000000
z169z233z1                    1.000000
z169z268z1                    1.000000
z169z269z1                    1.000000
z169z270z1                    1.000000
z169z288z1                    1.000000
s170                          4.464869
z170z2z3                      1.000000
z170z55z1                     1.000000
z170z66z1                     1.000000
z170z67z3                     1.000000
z170z78z1                     1.000000
z170z116z1                    1.000000
z170z117z1                    1.000000
z170z140z1                    1.000000
z170z149z1                    1.000000
z170z161z1                    1.000000
z170z177z1                    1.000000
z170z196z1                    1.000000
z170z204z3                    1.000000
z170z225z3                    1.000000
z170z233z1                    1.000000
z170z251z1                    1.000000
z170z264z3                    1.000000
z170z268z1                    1.000000
z170z269z1                    1.000000
z170z270z1                    1.000000
z170z288z1                    1.000000
z170z289z3                    1.000000
s211                          4.808786
z211z16z2                     1.000000
z211z30z2                     1.000000
z211z48z2                     1.000000
z211z204z2                    1.000000
z211z215z2                    1.000000
z211z246z2                    1.000000
z211z287z2                    1.000000
s240                          5.616003
z240z16z2                     1.000000
z240z30z2                     1.000000
z240z48z2                     1.000000
z240z88z2                     1.000000
z240z215z2                    1.000000
z240z224z2                    1.000000
z240z287z2                    1.000000
s257                          5.203914
z257z2z3                      1.000000
z257z3z3                      1.000000
z257z58z3                     1.000000
z257z67z3                     1.000000
z257z225z3                    1.000000
z257z264z3                    1.000000
z257z289z3                    1.000000
s261                          5.340000
z261z2z3                      1.000000
z261z55z1                     1.000000
z261z66z1                     1.000000
z261z67z3                     1.000000
z261z78z1                     1.000000
z261z116z1                    1.000000
z261z117z1                    1.000000
z261z140z1                    1.000000
z261z149z1                    1.000000
z261z161z1                    1.000000
z261z177z1                    1.000000
z261z196z1                    1.000000
z261z206z1                    1.000000
z261z206z3                    1.000000
z261z225z3                    1.000000
z261z233z1                    1.000000
z261z264z3                    1.000000
z261z268z1                    1.000000
z261z269z1                    1.000000
z261z270z1                    1.000000
z261z288z1                    1.000000
z261z289z3                    1.000000
z3z215z2                      1.000000
z3z289z3                      1.000000
z16z35z2                      1.000000
z16z265z2                     1.000000
z29z64z1                      1.000000
z29z64z3                      1.000000
z29z116z1                     1.000000
z29z117z1                     1.000000
z29z270z1                     1.000000
z58z16z2                      1.000000
z58z264z3                     1.000000
z66z116z1                     1.000000
z66z117z1                     1.000000
z66z270z1                     1.000000
z67z17z3                      1.000000
z67z35z3                      1.000000
z88z60z2                      1.000000
z88z116z1                     1.000000
z88z117z1                     1.000000
z88z149z1                     1.000000
z88z270z1                     1.000000
z99z2z3                       1.000000
z99z287z2                     1.000000
z133z17z2                     1.000000
z133z285z3                    1.000000
z135z48z2                     1.000000
z135z116z1                    1.000000
z135z117z1                    1.000000
z135z149z1                    1.000000
z135z270z1                    1.000000
z148z29z3                     1.000000
z148z116z1                    1.000000
z148z117z1                    1.000000
z148z205z1                    1.000000
z148z270z1                    1.000000
z187z116z1                    1.000000
z187z117z1                    1.000000
z187z158z2                    1.000000
z187z209z1                    1.000000
z187z270z1                    1.000000
z189z2z3                      1.000000
z189z116z1                    1.000000
z189z117z1                    1.000000
z189z270z1                    1.000000
z204z48z2                     1.000000
z204z229z3                    1.000000
z205z140z1                    1.000000
z205z209z3                    1.000000
z206z66z1                     1.000000
z206z116z1                    1.000000
z206z117z1                    1.000000
z206z205z3                    1.000000
z206z270z1                    1.000000
z215z285z2                    1.000000
z215z287z2                    1.000000
z224z30z2                     1.000000
z224z287z2                    1.000000
z226z116z1                    1.000000
z226z117z1                    1.000000
z226z229z1                    1.000000
z226z270z1                    1.000000
z226z289z3                    1.000000
z229z60z3                     1.000000
z229z117z1                    1.000000
z246z116z1                    1.000000
z246z117z1                    1.000000
z246z133z2                    1.000000
z246z270z1                    1.000000
z251z66z1                     1.000000
z251z116z1                    1.000000
z251z117z1                    1.000000
z251z133z3                    1.000000
z251z270z1                    1.000000
z254z16z2                     1.000000
z254z264z3                    1.000000
z264z225z3                    1.000000
z267z67z3                     1.000000
z267z225z3                    1.000000
z288z116z1                    1.000000
z288z140z1                    1.000000
z289z158z3                    1.000000
z289z225z3                    1.000000
z289z265z3                    1.000000
z296z116z1                    1.000000
z296z117z1                    1.000000
z296z270z1                    1.000000
z296z288z1                    1.000000
All other variables in the range 1-4402 are 0.
